* #variable= 182 #constraint= 42 #equal= 0 intsize= 16 #product= 588 sizeproduct= 1176
min: +1 x1 +2 x2 +3 x3 +4 x4 +5 x5 +6 x6 +7 x7 +10 x179 +20 x180 +40 x181 +80 x182 +10 x8 +20 x9 +40 x10 +80 x11 +10 x12 +20 x13 +40 x14 +80 x15 +10 x16 +20 x17 +40 x18 +80 x19 +10 x20 +20 x21 +40 x22 +80 x23 +10 x24 +20 x25 +40 x26 +80 x27 +10 x28 +20 x29 +40 x30 +80 x31 ;
-550 x32 -1100 x33 -1650 x34 -630 x35 -1260 x36 -1890 x37 -685 x38 -1370 x39 -2055 x40 -720 x41 -1440 x42 -2160 x43 -760 x44 -1520 x45 -2280 x46 -810 x47 -1620 x48 -2430 x49 -850 x50 -1700 x51 -2550 x52 >= -3400;
-550 x53 -1100 x54 -1650 x55 -630 x56 -1260 x57 -1890 x58 -685 x59 -1370 x60 -2055 x61 -720 x62 -1440 x63 -2160 x64 -760 x65 -1520 x66 -2280 x67 -810 x68 -1620 x69 -2430 x70 -850 x71 -1700 x72 -2550 x73 >= -3400;
-550 x74 -1100 x75 -1650 x76 -630 x77 -1260 x78 -1890 x79 -685 x80 -1370 x81 -2055 x82 -720 x83 -1440 x84 -2160 x85 -760 x86 -1520 x87 -2280 x88 -810 x89 -1620 x90 -2430 x91 -850 x92 -1700 x93 -2550 x94 >= -3400;
-550 x95 -1100 x96 -1650 x97 -630 x98 -1260 x99 -1890 x100 -685 x101 -1370 x102 -2055 x103 -720 x104 -1440 x105 -2160 x106 -760 x107 -1520 x108 -2280 x109 -810 x110 -1620 x111 -2430 x112 -850 x113 -1700 x114 -2550 x115 >= -3400;
-550 x116 -1100 x117 -1650 x118 -630 x119 -1260 x120 -1890 x121 -685 x122 -1370 x123 -2055 x124 -720 x125 -1440 x126 -2160 x127 -760 x128 -1520 x129 -2280 x130 -810 x131 -1620 x132 -2430 x133 -850 x134 -1700 x135 -2550 x136 >= -3400;
-550 x137 -1100 x138 -1650 x139 -630 x140 -1260 x141 -1890 x142 -685 x143 -1370 x144 -2055 x145 -720 x146 -1440 x147 -2160 x148 -760 x149 -1520 x150 -2280 x151 -810 x152 -1620 x153 -2430 x154 -850 x155 -1700 x156 -2550 x157 >= -3400;
-550 x158 -1100 x159 -1650 x160 -630 x161 -1260 x162 -1890 x163 -685 x164 -1370 x165 -2055 x166 -720 x167 -1440 x168 -2160 x169 -760 x170 -1520 x171 -2280 x172 -810 x173 -1620 x174 -2430 x175 -850 x176 -1700 x177 -2550 x178 >= -3400;
+550 x32 +1100 x33 +1650 x34 +630 x35 +1260 x36 +1890 x37 +685 x38 +1370 x39 +2055 x40 +720 x41 +1440 x42 +2160 x43 +760 x44 +1520 x45 +2280 x46 +810 x47 +1620 x48 +2430 x49 +850 x50 +1700 x51 +2550 x52 >= 3200;
+550 x53 +1100 x54 +1650 x55 +630 x56 +1260 x57 +1890 x58 +685 x59 +1370 x60 +2055 x61 +720 x62 +1440 x63 +2160 x64 +760 x65 +1520 x66 +2280 x67 +810 x68 +1620 x69 +2430 x70 +850 x71 +1700 x72 +2550 x73 >= 3200;
+550 x74 +1100 x75 +1650 x76 +630 x77 +1260 x78 +1890 x79 +685 x80 +1370 x81 +2055 x82 +720 x83 +1440 x84 +2160 x85 +760 x86 +1520 x87 +2280 x88 +810 x89 +1620 x90 +2430 x91 +850 x92 +1700 x93 +2550 x94 >= 3200;
+550 x95 +1100 x96 +1650 x97 +630 x98 +1260 x99 +1890 x100 +685 x101 +1370 x102 +2055 x103 +720 x104 +1440 x105 +2160 x106 +760 x107 +1520 x108 +2280 x109 +810 x110 +1620 x111 +2430 x112 +850 x113 +1700 x114 +2550 x115 >= 3200;
+550 x116 +1100 x117 +1650 x118 +630 x119 +1260 x120 +1890 x121 +685 x122 +1370 x123 +2055 x124 +720 x125 +1440 x126 +2160 x127 +760 x128 +1520 x129 +2280 x130 +810 x131 +1620 x132 +2430 x133 +850 x134 +1700 x135 +2550 x136 >= 3200;
+550 x137 +1100 x138 +1650 x139 +630 x140 +1260 x141 +1890 x142 +685 x143 +1370 x144 +2055 x145 +720 x146 +1440 x147 +2160 x148 +760 x149 +1520 x150 +2280 x151 +810 x152 +1620 x153 +2430 x154 +850 x155 +1700 x156 +2550 x157 >= 3200;
+550 x158 +1100 x159 +1650 x160 +630 x161 +1260 x162 +1890 x163 +685 x164 +1370 x165 +2055 x166 +720 x167 +1440 x168 +2160 x169 +760 x170 +1520 x171 +2280 x172 +810 x173 +1620 x174 +2430 x175 +850 x176 +1700 x177 +2550 x178 >= 3200;
-1 x32 -2 x33 -3 x34 -1 x35 -2 x36 -3 x37 -1 x38 -2 x39 -3 x40 -1 x41 -2 x42 -3 x43 -1 x44 -2 x45 -3 x46 -1 x47 -2 x48 -3 x49 -1 x50 -2 x51 -3 x52 >= -6;
-1 x53 -2 x54 -3 x55 -1 x56 -2 x57 -3 x58 -1 x59 -2 x60 -3 x61 -1 x62 -2 x63 -3 x64 -1 x65 -2 x66 -3 x67 -1 x68 -2 x69 -3 x70 -1 x71 -2 x72 -3 x73 >= -6;
-1 x74 -2 x75 -3 x76 -1 x77 -2 x78 -3 x79 -1 x80 -2 x81 -3 x82 -1 x83 -2 x84 -3 x85 -1 x86 -2 x87 -3 x88 -1 x89 -2 x90 -3 x91 -1 x92 -2 x93 -3 x94 >= -6;
-1 x95 -2 x96 -3 x97 -1 x98 -2 x99 -3 x100 -1 x101 -2 x102 -3 x103 -1 x104 -2 x105 -3 x106 -1 x107 -2 x108 -3 x109 -1 x110 -2 x111 -3 x112 -1 x113 -2 x114 -3 x115 >= -6;
-1 x116 -2 x117 -3 x118 -1 x119 -2 x120 -3 x121 -1 x122 -2 x123 -3 x124 -1 x125 -2 x126 -3 x127 -1 x128 -2 x129 -3 x130 -1 x131 -2 x132 -3 x133 -1 x134 -2 x135 -3 x136 >= -6;
-1 x137 -2 x138 -3 x139 -1 x140 -2 x141 -3 x142 -1 x143 -2 x144 -3 x145 -1 x146 -2 x147 -3 x148 -1 x149 -2 x150 -3 x151 -1 x152 -2 x153 -3 x154 -1 x155 -2 x156 -3 x157 >= -6;
-1 x158 -2 x159 -3 x160 -1 x161 -2 x162 -3 x163 -1 x164 -2 x165 -3 x166 -1 x167 -2 x168 -3 x169 -1 x170 -2 x171 -3 x172 -1 x173 -2 x174 -3 x175 -1 x176 -2 x177 -3 x178 >= -6;
-1 x1 +1 x179 +2 x180 +4 x181 +8 x182 >= 0;
-1 x2 +1 x8 +2 x9 +4 x10 +8 x11 >= 0;
-1 x3 +1 x12 +2 x13 +4 x14 +8 x15 >= 0;
-1 x4 +1 x16 +2 x17 +4 x18 +8 x19 >= 0;
-1 x5 +1 x20 +2 x21 +4 x22 +8 x23 >= 0;
-1 x6 +1 x24 +2 x25 +4 x26 +8 x27 >= 0;
-1 x7 +1 x28 +2 x29 +4 x30 +8 x31 >= 0;
+15 x1 -1 x179 -2 x180 -4 x181 -8 x182 >= 0;
+15 x2 -1 x8 -2 x9 -4 x10 -8 x11 >= 0;
+15 x3 -1 x12 -2 x13 -4 x14 -8 x15 >= 0;
+15 x4 -1 x16 -2 x17 -4 x18 -8 x19 >= 0;
+15 x5 -1 x20 -2 x21 -4 x22 -8 x23 >= 0;
+15 x6 -1 x24 -2 x25 -4 x26 -8 x27 >= 0;
+15 x7 -1 x28 -2 x29 -4 x30 -8 x31 >= 0;
+1 x32 x179 +2 x33 x179 +3 x34 x179 +2 x32 x180 +4 x33 x180 +6 x34 x180 +4 x32 x181 +8 x33 x181 +12 x34 x181 +8 x32 x182 +16 x33 x182 +24 x34 x182 +1 x8 x53 +2 x8 x54 +3 x8 x55 +2 x9 x53 +4 x9 x54 +6 x9 x55 +4 x10 x53 +8 x10 x54 +12 x10 x55 +8 x11 x53 +16 x11 x54 +24 x11 x55 +1 x12 x74 +2 x12 x75 +3 x12 x76 +2 x13 x74 +4 x13 x75 +6 x13 x76 +4 x14 x74 +8 x14 x75 +12 x14 x76 +8 x15 x74 +16 x15 x75 +24 x15 x76 +1 x16 x95 +2 x16 x96 +3 x16 x97 +2 x17 x95 +4 x17 x96 +6 x17 x97 +4 x18 x95 +8 x18 x96 +12 x18 x97 +8 x19 x95 +16 x19 x96 +24 x19 x97 +1 x20 x116 +2 x20 x117 +3 x20 x118 +2 x21 x116 +4 x21 x117 +6 x21 x118 +4 x22 x116 +8 x22 x117 +12 x22 x118 +8 x23 x116 +16 x23 x117 +24 x23 x118 +1 x24 x137 +2 x24 x138 +3 x24 x139 +2 x25 x137 +4 x25 x138 +6 x25 x139 +4 x26 x137 +8 x26 x138 +12 x26 x139 +8 x27 x137 +16 x27 x138 +24 x27 x139 +1 x28 x158 +2 x28 x159 +3 x28 x160 +2 x29 x158 +4 x29 x159 +6 x29 x160 +4 x30 x158 +8 x30 x159 +12 x30 x160 +8 x31 x158 +16 x31 x159 +24 x31 x160 >= 8;
+1 x35 x179 +2 x36 x179 +3 x37 x179 +2 x35 x180 +4 x36 x180 +6 x37 x180 +4 x35 x181 +8 x36 x181 +12 x37 x181 +8 x35 x182 +16 x36 x182 +24 x37 x182 +1 x8 x56 +2 x8 x57 +3 x8 x58 +2 x9 x56 +4 x9 x57 +6 x9 x58 +4 x10 x56 +8 x10 x57 +12 x10 x58 +8 x11 x56 +16 x11 x57 +24 x11 x58 +1 x12 x77 +2 x12 x78 +3 x12 x79 +2 x13 x77 +4 x13 x78 +6 x13 x79 +4 x14 x77 +8 x14 x78 +12 x14 x79 +8 x15 x77 +16 x15 x78 +24 x15 x79 +1 x16 x98 +2 x16 x99 +3 x16 x100 +2 x17 x98 +4 x17 x99 +6 x17 x100 +4 x18 x98 +8 x18 x99 +12 x18 x100 +8 x19 x98 +16 x19 x99 +24 x19 x100 +1 x20 x119 +2 x20 x120 +3 x20 x121 +2 x21 x119 +4 x21 x120 +6 x21 x121 +4 x22 x119 +8 x22 x120 +12 x22 x121 +8 x23 x119 +16 x23 x120 +24 x23 x121 +1 x24 x140 +2 x24 x141 +3 x24 x142 +2 x25 x140 +4 x25 x141 +6 x25 x142 +4 x26 x140 +8 x26 x141 +12 x26 x142 +8 x27 x140 +16 x27 x141 +24 x27 x142 +1 x28 x161 +2 x28 x162 +3 x28 x163 +2 x29 x161 +4 x29 x162 +6 x29 x163 +4 x30 x161 +8 x30 x162 +12 x30 x163 +8 x31 x161 +16 x31 x162 +24 x31 x163 >= 11;
+1 x38 x179 +2 x39 x179 +3 x40 x179 +2 x38 x180 +4 x39 x180 +6 x40 x180 +4 x38 x181 +8 x39 x181 +12 x40 x181 +8 x38 x182 +16 x39 x182 +24 x40 x182 +1 x8 x59 +2 x8 x60 +3 x8 x61 +2 x9 x59 +4 x9 x60 +6 x9 x61 +4 x10 x59 +8 x10 x60 +12 x10 x61 +8 x11 x59 +16 x11 x60 +24 x11 x61 +1 x12 x80 +2 x12 x81 +3 x12 x82 +2 x13 x80 +4 x13 x81 +6 x13 x82 +4 x14 x80 +8 x14 x81 +12 x14 x82 +8 x15 x80 +16 x15 x81 +24 x15 x82 +1 x16 x101 +2 x16 x102 +3 x16 x103 +2 x17 x101 +4 x17 x102 +6 x17 x103 +4 x18 x101 +8 x18 x102 +12 x18 x103 +8 x19 x101 +16 x19 x102 +24 x19 x103 +1 x20 x122 +2 x20 x123 +3 x20 x124 +2 x21 x122 +4 x21 x123 +6 x21 x124 +4 x22 x122 +8 x22 x123 +12 x22 x124 +8 x23 x122 +16 x23 x123 +24 x23 x124 +1 x24 x143 +2 x24 x144 +3 x24 x145 +2 x25 x143 +4 x25 x144 +6 x25 x145 +4 x26 x143 +8 x26 x144 +12 x26 x145 +8 x27 x143 +16 x27 x144 +24 x27 x145 +1 x28 x164 +2 x28 x165 +3 x28 x166 +2 x29 x164 +4 x29 x165 +6 x29 x166 +4 x30 x164 +8 x30 x165 +12 x30 x166 +8 x31 x164 +16 x31 x165 +24 x31 x166 >= 15;
+1 x41 x179 +2 x42 x179 +3 x43 x179 +2 x41 x180 +4 x42 x180 +6 x43 x180 +4 x41 x181 +8 x42 x181 +12 x43 x181 +8 x41 x182 +16 x42 x182 +24 x43 x182 +1 x8 x62 +2 x8 x63 +3 x8 x64 +2 x9 x62 +4 x9 x63 +6 x9 x64 +4 x10 x62 +8 x10 x63 +12 x10 x64 +8 x11 x62 +16 x11 x63 +24 x11 x64 +1 x12 x83 +2 x12 x84 +3 x12 x85 +2 x13 x83 +4 x13 x84 +6 x13 x85 +4 x14 x83 +8 x14 x84 +12 x14 x85 +8 x15 x83 +16 x15 x84 +24 x15 x85 +1 x16 x104 +2 x16 x105 +3 x16 x106 +2 x17 x104 +4 x17 x105 +6 x17 x106 +4 x18 x104 +8 x18 x105 +12 x18 x106 +8 x19 x104 +16 x19 x105 +24 x19 x106 +1 x20 x125 +2 x20 x126 +3 x20 x127 +2 x21 x125 +4 x21 x126 +6 x21 x127 +4 x22 x125 +8 x22 x126 +12 x22 x127 +8 x23 x125 +16 x23 x126 +24 x23 x127 +1 x24 x146 +2 x24 x147 +3 x24 x148 +2 x25 x146 +4 x25 x147 +6 x25 x148 +4 x26 x146 +8 x26 x147 +12 x26 x148 +8 x27 x146 +16 x27 x147 +24 x27 x148 +1 x28 x167 +2 x28 x168 +3 x28 x169 +2 x29 x167 +4 x29 x168 +6 x29 x169 +4 x30 x167 +8 x30 x168 +12 x30 x169 +8 x31 x167 +16 x31 x168 +24 x31 x169 >= 5;
+1 x44 x179 +2 x45 x179 +3 x46 x179 +2 x44 x180 +4 x45 x180 +6 x46 x180 +4 x44 x181 +8 x45 x181 +12 x46 x181 +8 x44 x182 +16 x45 x182 +24 x46 x182 +1 x8 x65 +2 x8 x66 +3 x8 x67 +2 x9 x65 +4 x9 x66 +6 x9 x67 +4 x10 x65 +8 x10 x66 +12 x10 x67 +8 x11 x65 +16 x11 x66 +24 x11 x67 +1 x12 x86 +2 x12 x87 +3 x12 x88 +2 x13 x86 +4 x13 x87 +6 x13 x88 +4 x14 x86 +8 x14 x87 +12 x14 x88 +8 x15 x86 +16 x15 x87 +24 x15 x88 +1 x16 x107 +2 x16 x108 +3 x16 x109 +2 x17 x107 +4 x17 x108 +6 x17 x109 +4 x18 x107 +8 x18 x108 +12 x18 x109 +8 x19 x107 +16 x19 x108 +24 x19 x109 +1 x20 x128 +2 x20 x129 +3 x20 x130 +2 x21 x128 +4 x21 x129 +6 x21 x130 +4 x22 x128 +8 x22 x129 +12 x22 x130 +8 x23 x128 +16 x23 x129 +24 x23 x130 +1 x24 x149 +2 x24 x150 +3 x24 x151 +2 x25 x149 +4 x25 x150 +6 x25 x151 +4 x26 x149 +8 x26 x150 +12 x26 x151 +8 x27 x149 +16 x27 x150 +24 x27 x151 +1 x28 x170 +2 x28 x171 +3 x28 x172 +2 x29 x170 +4 x29 x171 +6 x29 x172 +4 x30 x170 +8 x30 x171 +12 x30 x172 +8 x31 x170 +16 x31 x171 +24 x31 x172 >= 8;
+1 x47 x179 +2 x48 x179 +3 x49 x179 +2 x47 x180 +4 x48 x180 +6 x49 x180 +4 x47 x181 +8 x48 x181 +12 x49 x181 +8 x47 x182 +16 x48 x182 +24 x49 x182 +1 x8 x68 +2 x8 x69 +3 x8 x70 +2 x9 x68 +4 x9 x69 +6 x9 x70 +4 x10 x68 +8 x10 x69 +12 x10 x70 +8 x11 x68 +16 x11 x69 +24 x11 x70 +1 x12 x89 +2 x12 x90 +3 x12 x91 +2 x13 x89 +4 x13 x90 +6 x13 x91 +4 x14 x89 +8 x14 x90 +12 x14 x91 +8 x15 x89 +16 x15 x90 +24 x15 x91 +1 x16 x110 +2 x16 x111 +3 x16 x112 +2 x17 x110 +4 x17 x111 +6 x17 x112 +4 x18 x110 +8 x18 x111 +12 x18 x112 +8 x19 x110 +16 x19 x111 +24 x19 x112 +1 x20 x131 +2 x20 x132 +3 x20 x133 +2 x21 x131 +4 x21 x132 +6 x21 x133 +4 x22 x131 +8 x22 x132 +12 x22 x133 +8 x23 x131 +16 x23 x132 +24 x23 x133 +1 x24 x152 +2 x24 x153 +3 x24 x154 +2 x25 x152 +4 x25 x153 +6 x25 x154 +4 x26 x152 +8 x26 x153 +12 x26 x154 +8 x27 x152 +16 x27 x153 +24 x27 x154 +1 x28 x173 +2 x28 x174 +3 x28 x175 +2 x29 x173 +4 x29 x174 +6 x29 x175 +4 x30 x173 +8 x30 x174 +12 x30 x175 +8 x31 x173 +16 x31 x174 +24 x31 x175 >= 12;
+1 x50 x179 +2 x51 x179 +3 x52 x179 +2 x50 x180 +4 x51 x180 +6 x52 x180 +4 x50 x181 +8 x51 x181 +12 x52 x181 +8 x50 x182 +16 x51 x182 +24 x52 x182 +1 x8 x71 +2 x8 x72 +3 x8 x73 +2 x9 x71 +4 x9 x72 +6 x9 x73 +4 x10 x71 +8 x10 x72 +12 x10 x73 +8 x11 x71 +16 x11 x72 +24 x11 x73 +1 x12 x92 +2 x12 x93 +3 x12 x94 +2 x13 x92 +4 x13 x93 +6 x13 x94 +4 x14 x92 +8 x14 x93 +12 x14 x94 +8 x15 x92 +16 x15 x93 +24 x15 x94 +1 x16 x113 +2 x16 x114 +3 x16 x115 +2 x17 x113 +4 x17 x114 +6 x17 x115 +4 x18 x113 +8 x18 x114 +12 x18 x115 +8 x19 x113 +16 x19 x114 +24 x19 x115 +1 x20 x134 +2 x20 x135 +3 x20 x136 +2 x21 x134 +4 x21 x135 +6 x21 x136 +4 x22 x134 +8 x22 x135 +12 x22 x136 +8 x23 x134 +16 x23 x135 +24 x23 x136 +1 x24 x155 +2 x24 x156 +3 x24 x157 +2 x25 x155 +4 x25 x156 +6 x25 x157 +4 x26 x155 +8 x26 x156 +12 x26 x157 +8 x27 x155 +16 x27 x156 +24 x27 x157 +1 x28 x176 +2 x28 x177 +3 x28 x178 +2 x29 x176 +4 x29 x177 +6 x29 x178 +4 x30 x176 +8 x30 x177 +12 x30 x178 +8 x31 x176 +16 x31 x177 +24 x31 x178 >= 6;
